Results/Experiment 1 Results/New Benchmark/RES_20/output_p1_0.50_p2_0.00_n_20_00.txt
solutions: 0 nodes: 0  modelTime: 138  solveTime: 12  totalTime: 152  modelSize: 7358  readTime: 2 matchingSize: 0
